; DUP4 DUP4 PUSH cw_1 SWAP3 SWAP2 => PUSH cw_1 SWAP1 DUP4 DUP6
(set-option :produce-proofs true)
; 
(set-info :status unknown)
(declare-fun storage_t ((_ BitVec 256) (_ BitVec 256) (_ BitVec 256) (_ BitVec 256) (_ BitVec 256) Int (_ BitVec 256)) (_ BitVec 256))
(declare-fun w_1 () (_ BitVec 256))
(declare-fun storage_s ((_ BitVec 256) (_ BitVec 256) (_ BitVec 256) (_ BitVec 256) (_ BitVec 256) Int (_ BitVec 256)) (_ BitVec 256))
(declare-fun exc_halt_t (Int) Bool)
(declare-fun exc_halt_s (Int) Bool)
(declare-fun stack_t ((_ BitVec 256) (_ BitVec 256) (_ BitVec 256) (_ BitVec 256) (_ BitVec 256) Int (_ BitVec 6)) (_ BitVec 256))
(declare-fun stack_s ((_ BitVec 256) (_ BitVec 256) (_ BitVec 256) (_ BitVec 256) (_ BitVec 256) Int (_ BitVec 6)) (_ BitVec 256))
(declare-fun sc_t (Int) (_ BitVec 6))
(declare-fun sc_s (Int) (_ BitVec 6))
(declare-fun used_gas_t ((_ BitVec 256) (_ BitVec 256) (_ BitVec 256) (_ BitVec 256) (_ BitVec 256) Int) Int)
(declare-fun used_gas_s ((_ BitVec 256) (_ BitVec 256) (_ BitVec 256) (_ BitVec 256) (_ BitVec 256) Int) Int)
(assert
 (exists ((x_0 (_ BitVec 256)) (x_1 (_ BitVec 256)) (x_2 (_ BitVec 256)) (x_3 (_ BitVec 256)) )(let (($x8797 (forall ((w (_ BitVec 256)) )(let ((?x8779 (storage_t x_0 x_1 x_2 x_3 w_1 4 w)))
 (let ((?x8793 (storage_s x_0 x_1 x_2 x_3 w_1 5 w)))
 (= ?x8793 ?x8779))))
 ))
 (let (($x8747 (exc_halt_t 4)))
 (let (($x3979 (exc_halt_s 5)))
 (let (($x550 (= $x3979 $x8747)))
 (let (($x9045 (forall ((n (_ BitVec 6)) )(let ((?x7689 (stack_t x_0 x_1 x_2 x_3 w_1 4 n)))
 (let ((?x3012 (stack_s x_0 x_1 x_2 x_3 w_1 5 n)))
 (let (($x8796 (= ?x3012 ?x7689)))
 (let ((?x9469 (sc_t 4)))
 (let (($x3598 (bvsle ?x9469 n)))
 (or $x3598 $x8796)))))))
 ))
 (let ((?x9469 (sc_t 4)))
 (let ((?x805 (sc_s 5)))
 (let (($x670 (= ?x805 ?x9469)))
 (let ((?x7717 (used_gas_t x_0 x_1 x_2 x_3 w_1 0)))
 (let ((?x7724 (used_gas_s x_0 x_1 x_2 x_3 w_1 0)))
 (let (($x7733 (= ?x7724 ?x7717)))
 (let (($x8679 (forall ((w (_ BitVec 256)) )(let ((?x3024 (storage_t x_0 x_1 x_2 x_3 w_1 0 w)))
 (let ((?x8578 (storage_s x_0 x_1 x_2 x_3 w_1 0 w)))
 (= ?x8578 ?x3024))))
 ))
 (let (($x56 (exc_halt_t 0)))
 (let (($x57 (exc_halt_s 0)))
 (let (($x58 (= $x57 $x56)))
 (let (($x9055 (forall ((n (_ BitVec 6)) )(let ((?x8567 (stack_t x_0 x_1 x_2 x_3 w_1 0 n)))
 (let ((?x7693 (stack_s x_0 x_1 x_2 x_3 w_1 0 n)))
 (let (($x8611 (= ?x7693 ?x8567)))
 (let ((?x63 (sc_t 0)))
 (let (($x3675 (bvsle ?x63 n)))
 (or $x3675 $x8611)))))))
 ))
 (let ((?x63 (sc_t 0)))
 (let ((?x72 (sc_s 0)))
 (let (($x73 (= ?x72 ?x63)))
 (let (($x8030 (exc_halt_t 3)))
 (let (($x5374 (not (bvsle (_ bv0 6) (bvadd (_ bv58 6) (sc_t 3))))))
 (let (($x5001 (not (= ((_ extract 6 6) (bvadd (_ bv1 7) (concat (_ bv0 1) (sc_t 3)))) (_ bv0 1)))))
 (let (($x9132 (forall ((w (_ BitVec 256)) )(let ((?x8790 (storage_t x_0 x_1 x_2 x_3 w_1 3 w)))
 (let ((?x8779 (storage_t x_0 x_1 x_2 x_3 w_1 4 w)))
 (= ?x8779 ?x8790))))
 ))
 (let (($x9064 (forall ((n (_ BitVec 6)) )(let ((?x8776 (stack_t x_0 x_1 x_2 x_3 w_1 3 n)))
 (let ((?x7689 (stack_t x_0 x_1 x_2 x_3 w_1 4 n)))
 (let ((?x2012 (sc_t 3)))
 (let ((?x7538 (bvadd (_ bv58 6) ?x2012)))
 (let (($x7657 (bvsle ?x7538 n)))
 (or $x7657 (= ?x7689 ?x8776))))))))
 ))
 (let (($x4660 (= ?x9469 (bvadd (_ bv1 6) (sc_t 3)))))
 (let (($x9088 (= (used_gas_t x_0 x_1 x_2 x_3 w_1 4) (+ 3 (used_gas_t x_0 x_1 x_2 x_3 w_1 3)))))
 (let ((?x2012 (sc_t 3)))
 (let ((?x3673 (bvadd (_ bv63 6) ?x2012)))
 (let ((?x9208 (stack_t x_0 x_1 x_2 x_3 w_1 3 ?x3673)))
 (let (($x9212 (= (stack_t x_0 x_1 x_2 x_3 w_1 4 (bvadd (_ bv62 6) ?x2012)) (stack_t x_0 x_1 x_2 x_3 w_1 3 (bvadd (_ bv62 6) ?x2012)))))
 (let (($x9219 (= (stack_t x_0 x_1 x_2 x_3 w_1 4 (bvadd (_ bv61 6) ?x2012)) (stack_t x_0 x_1 x_2 x_3 w_1 3 (bvadd (_ bv61 6) ?x2012)))))
 (let (($x8866 (= (stack_t x_0 x_1 x_2 x_3 w_1 4 (bvadd (_ bv60 6) ?x2012)) (stack_t x_0 x_1 x_2 x_3 w_1 3 (bvadd (_ bv60 6) ?x2012)))))
 (let (($x9236 (= (stack_t x_0 x_1 x_2 x_3 w_1 4 (bvadd (_ bv59 6) ?x2012)) (stack_t x_0 x_1 x_2 x_3 w_1 3 (bvadd (_ bv59 6) ?x2012)))))
 (let ((?x7538 (bvadd (_ bv58 6) ?x2012)))
 (let ((?x8944 (stack_t x_0 x_1 x_2 x_3 w_1 3 ?x7538)))
 (let (($x7614 (not (bvsle (_ bv0 6) (bvadd (_ bv60 6) (sc_t 2))))))
 (let (($x3630 (not (= ((_ extract 6 6) (bvadd (_ bv1 7) (concat (_ bv0 1) (sc_t 2)))) (_ bv0 1)))))
 (let (($x903 (exc_halt_t 2)))
 (let (($x7607 (= $x8030 (or $x903 $x3630 $x7614))))
 (let (($x8935 (forall ((w (_ BitVec 256)) )(let ((?x8557 (storage_t x_0 x_1 x_2 x_3 w_1 2 w)))
 (let ((?x8790 (storage_t x_0 x_1 x_2 x_3 w_1 3 w)))
 (= ?x8790 ?x8557))))
 ))
 (let (($x9258 (forall ((n (_ BitVec 6)) )(let ((?x8559 (stack_t x_0 x_1 x_2 x_3 w_1 2 n)))
 (let ((?x8776 (stack_t x_0 x_1 x_2 x_3 w_1 3 n)))
 (let ((?x4056 (sc_t 2)))
 (let ((?x2153 (bvadd (_ bv60 6) ?x4056)))
 (let (($x6890 (bvsle ?x2153 n)))
 (or $x6890 (= ?x8776 ?x8559))))))))
 ))
 (let (($x3582 (= ?x2012 (bvadd (_ bv1 6) (sc_t 2)))))
 (let ((?x7774 (used_gas_t x_0 x_1 x_2 x_3 w_1 3)))
 (let ((?x4056 (sc_t 2)))
 (let ((?x7929 (bvadd (_ bv63 6) ?x4056)))
 (let ((?x9191 (stack_t x_0 x_1 x_2 x_3 w_1 2 ?x7929)))
 (let ((?x2229 (bvadd (_ bv62 6) ?x4056)))
 (let ((?x9174 (stack_t x_0 x_1 x_2 x_3 w_1 2 ?x2229)))
 (let (($x9256 (= (stack_t x_0 x_1 x_2 x_3 w_1 3 (bvadd (_ bv61 6) ?x4056)) (stack_t x_0 x_1 x_2 x_3 w_1 2 (bvadd (_ bv61 6) ?x4056)))))
 (let ((?x2153 (bvadd (_ bv60 6) ?x4056)))
 (let ((?x9322 (stack_t x_0 x_1 x_2 x_3 w_1 2 ?x2153)))
 (let (($x6625 (= $x903 (or (exc_halt_t 1) (not (bvsle (_ bv0 6) (bvadd (_ bv62 6) (sc_t 1))))))))
 (let (($x9198 (forall ((w (_ BitVec 256)) )(let ((?x7739 (storage_t x_0 x_1 x_2 x_3 w_1 1 w)))
 (let ((?x8557 (storage_t x_0 x_1 x_2 x_3 w_1 2 w)))
 (= ?x8557 ?x7739))))
 ))
 (let (($x9210 (forall ((n (_ BitVec 6)) )(let ((?x8814 (stack_t x_0 x_1 x_2 x_3 w_1 1 n)))
 (let ((?x8559 (stack_t x_0 x_1 x_2 x_3 w_1 2 n)))
 (let ((?x4023 (sc_t 1)))
 (let ((?x4102 (bvadd (_ bv62 6) ?x4023)))
 (let (($x1002 (bvsle ?x4102 n)))
 (or $x1002 (= ?x8559 ?x8814))))))))
 ))
 (let ((?x4023 (sc_t 1)))
 (let (($x2318 (= ?x4056 ?x4023)))
 (let ((?x446 (used_gas_t x_0 x_1 x_2 x_3 w_1 2)))
 (let (($x1920 (exc_halt_t 1)))
 (let (($x420 (= $x1920 (or $x56 (not (= ((_ extract 6 6) (bvadd (_ bv1 7) (concat (_ bv0 1) ?x63))) (_ bv0 1)))))))
 (let (($x9164 (forall ((w (_ BitVec 256)) )(let ((?x3024 (storage_t x_0 x_1 x_2 x_3 w_1 0 w)))
 (let ((?x7739 (storage_t x_0 x_1 x_2 x_3 w_1 1 w)))
 (= ?x7739 ?x3024))))
 ))
 (let (($x9160 (forall ((n (_ BitVec 6)) )(let ((?x8567 (stack_t x_0 x_1 x_2 x_3 w_1 0 n)))
 (let ((?x8814 (stack_t x_0 x_1 x_2 x_3 w_1 1 n)))
 (let ((?x63 (sc_t 0)))
 (let (($x3675 (bvsle ?x63 n)))
 (or $x3675 (= ?x8814 ?x8567)))))))
 ))
 (let (($x3747 (= ?x4023 (bvadd (_ bv1 6) ?x63))))
 (let (($x9879 (= $x3979 (or (exc_halt_s 4) (not (bvsle (_ bv0 6) (bvadd (_ bv61 6) (sc_s 4))))))))
 (let (($x9158 (forall ((w (_ BitVec 256)) )(let ((?x8824 (storage_s x_0 x_1 x_2 x_3 w_1 4 w)))
 (let ((?x8793 (storage_s x_0 x_1 x_2 x_3 w_1 5 w)))
 (= ?x8793 ?x8824))))
 ))
 (let (($x9155 (forall ((n (_ BitVec 6)) )(let ((?x8826 (stack_s x_0 x_1 x_2 x_3 w_1 4 n)))
 (let ((?x3012 (stack_s x_0 x_1 x_2 x_3 w_1 5 n)))
 (let ((?x4305 (sc_s 4)))
 (let ((?x10003 (bvadd (_ bv61 6) ?x4305)))
 (let (($x3353 (bvsle ?x10003 n)))
 (or $x3353 (= ?x3012 ?x8826))))))))
 ))
 (let ((?x4305 (sc_s 4)))
 (let (($x3364 (= ?x805 ?x4305)))
 (let (($x9149 (= (used_gas_s x_0 x_1 x_2 x_3 w_1 5) (+ 3 (used_gas_s x_0 x_1 x_2 x_3 w_1 4)))))
 (let ((?x3773 (bvadd (_ bv62 6) ?x4305)))
 (let ((?x9073 (stack_s x_0 x_1 x_2 x_3 w_1 4 ?x3773)))
 (let ((?x374 (bvadd (_ bv63 6) ?x4305)))
 (let ((?x9034 (stack_s x_0 x_1 x_2 x_3 w_1 4 ?x374)))
 (let ((?x10003 (bvadd (_ bv61 6) ?x4305)))
 (let ((?x9082 (stack_s x_0 x_1 x_2 x_3 w_1 4 ?x10003)))
 (let (($x64 (exc_halt_s 4)))
 (let (($x9117 (= $x64 (or (exc_halt_s 3) (not (bvsle (_ bv0 6) (bvadd (_ bv60 6) (sc_s 3))))))))
 (let (($x9099 (forall ((w (_ BitVec 256)) )(let ((?x7841 (storage_s x_0 x_1 x_2 x_3 w_1 3 w)))
 (let ((?x8824 (storage_s x_0 x_1 x_2 x_3 w_1 4 w)))
 (= ?x8824 ?x7841))))
 ))
 (let (($x9106 (forall ((n (_ BitVec 6)) )(let ((?x8842 (stack_s x_0 x_1 x_2 x_3 w_1 3 n)))
 (let ((?x8826 (stack_s x_0 x_1 x_2 x_3 w_1 4 n)))
 (or (bvsle (bvadd (_ bv60 6) (sc_s 3)) n) (= ?x8826 ?x8842)))))
 ))
 (let ((?x275 (sc_s 3)))
 (let (($x1228 (= ?x4305 ?x275)))
 (let ((?x7759 (used_gas_s x_0 x_1 x_2 x_3 w_1 4)))
 (let (($x9080 (= (stack_s x_0 x_1 x_2 x_3 w_1 4 (bvadd (_ bv60 6) ?x4305)) (stack_s x_0 x_1 x_2 x_3 w_1 3 (bvadd (_ bv63 6) ?x275)))))
 (let (($x3820 (not (= ((_ extract 6 6) (bvadd (_ bv1 7) (concat (_ bv0 1) (sc_s 2)))) (_ bv0 1)))))
 (let (($x247 (exc_halt_s 2)))
 (let (($x292 (exc_halt_s 3)))
 (let (($x3529 (= $x292 (or $x247 $x3820))))
 (let (($x9016 (forall ((w (_ BitVec 256)) )(let ((?x8854 (storage_s x_0 x_1 x_2 x_3 w_1 2 w)))
 (let ((?x7841 (storage_s x_0 x_1 x_2 x_3 w_1 3 w)))
 (= ?x7841 ?x8854))))
 ))
 (let (($x9008 (forall ((n (_ BitVec 6)) )(let ((?x2990 (stack_s x_0 x_1 x_2 x_3 w_1 2 n)))
 (let ((?x8842 (stack_s x_0 x_1 x_2 x_3 w_1 3 n)))
 (let ((?x218 (sc_s 2)))
 (let (($x4122 (bvsle ?x218 n)))
 (or $x4122 (= ?x8842 ?x2990)))))))
 ))
 (let (($x3819 (= ?x275 (bvadd (_ bv1 6) (sc_s 2)))))
 (let ((?x8730 (used_gas_s x_0 x_1 x_2 x_3 w_1 3)))
 (let (($x3621 (not (bvsle (_ bv0 6) (bvadd (_ bv60 6) (sc_s 1))))))
 (let (($x1051 (not (= ((_ extract 6 6) (bvadd (_ bv1 7) (concat (_ bv0 1) (sc_s 1)))) (_ bv0 1)))))
 (let (($x189 (exc_halt_s 1)))
 (let (($x1059 (= $x247 (or $x189 $x1051 $x3621))))
 (let (($x9011 (forall ((w (_ BitVec 256)) )(let ((?x3393 (storage_s x_0 x_1 x_2 x_3 w_1 1 w)))
 (let ((?x8854 (storage_s x_0 x_1 x_2 x_3 w_1 2 w)))
 (= ?x8854 ?x3393))))
 ))
 (let (($x9005 (forall ((n (_ BitVec 6)) )(let ((?x2502 (stack_s x_0 x_1 x_2 x_3 w_1 1 n)))
 (let ((?x2990 (stack_s x_0 x_1 x_2 x_3 w_1 2 n)))
 (let ((?x154 (sc_s 1)))
 (let ((?x8708 (bvadd (_ bv60 6) ?x154)))
 (let (($x8622 (bvsle ?x8708 n)))
 (or $x8622 (= ?x2990 ?x2502))))))))
 ))
 (let ((?x218 (sc_s 2)))
 (let (($x1015 (= ?x218 (bvadd (_ bv1 6) (sc_s 1)))))
 (let ((?x8927 (used_gas_s x_0 x_1 x_2 x_3 w_1 2)))
 (let ((?x154 (sc_s 1)))
 (let ((?x3842 (bvadd (_ bv63 6) ?x154)))
 (let ((?x9293 (stack_s x_0 x_1 x_2 x_3 w_1 1 ?x3842)))
 (let (($x8984 (= (stack_s x_0 x_1 x_2 x_3 w_1 2 (bvadd (_ bv62 6) ?x154)) (stack_s x_0 x_1 x_2 x_3 w_1 1 (bvadd (_ bv62 6) ?x154)))))
 (let (($x8942 (= (stack_s x_0 x_1 x_2 x_3 w_1 2 (bvadd (_ bv61 6) ?x154)) (stack_s x_0 x_1 x_2 x_3 w_1 1 (bvadd (_ bv61 6) ?x154)))))
 (let ((?x8708 (bvadd (_ bv60 6) ?x154)))
 (let ((?x8954 (stack_s x_0 x_1 x_2 x_3 w_1 1 ?x8708)))
 (let (($x7166 (not (bvsle (_ bv0 6) (bvadd (_ bv60 6) ?x72)))))
 (let (($x3827 (not (= ((_ extract 6 6) (bvadd (_ bv1 7) (concat (_ bv0 1) ?x72))) (_ bv0 1)))))
 (let (($x7157 (= $x189 (or $x57 $x3827 $x7166))))
 (let (($x8969 (forall ((w (_ BitVec 256)) )(let ((?x8578 (storage_s x_0 x_1 x_2 x_3 w_1 0 w)))
 (let ((?x3393 (storage_s x_0 x_1 x_2 x_3 w_1 1 w)))
 (= ?x3393 ?x8578))))
 ))
 (let (($x8933 (forall ((n (_ BitVec 6)) )(let ((?x7693 (stack_s x_0 x_1 x_2 x_3 w_1 0 n)))
 (let ((?x2502 (stack_s x_0 x_1 x_2 x_3 w_1 1 n)))
 (let ((?x72 (sc_s 0)))
 (let ((?x7254 (bvadd (_ bv60 6) ?x72)))
 (let (($x7203 (bvsle ?x7254 n)))
 (or $x7203 (= ?x2502 ?x7693))))))))
 ))
 (let (($x3843 (= ?x154 (bvadd (_ bv1 6) ?x72))))
 (let (($x9272 (= (stack_s x_0 x_1 x_2 x_3 w_1 1 (bvadd (_ bv63 6) ?x72)) (stack_s x_0 x_1 x_2 x_3 w_1 0 (bvadd (_ bv63 6) ?x72)))))
 (let (($x9290 (= (stack_s x_0 x_1 x_2 x_3 w_1 1 (bvadd (_ bv62 6) ?x72)) (stack_s x_0 x_1 x_2 x_3 w_1 0 (bvadd (_ bv62 6) ?x72)))))
 (let (($x9276 (= (stack_s x_0 x_1 x_2 x_3 w_1 1 (bvadd (_ bv61 6) ?x72)) (stack_s x_0 x_1 x_2 x_3 w_1 0 (bvadd (_ bv61 6) ?x72)))))
 (let ((?x7254 (bvadd (_ bv60 6) ?x72)))
 (let ((?x1726 (stack_s x_0 x_1 x_2 x_3 w_1 0 ?x7254)))
 (let (($x3555 (forall ((w (_ BitVec 256)) )(let ((?x8578 (storage_s x_0 x_1 x_2 x_3 w_1 0 w)))
 (= ?x8578 (_ bv0 256))))
 ))
 (let (($x3049 (= ?x7724 0)))
 (let (($x3853 (not $x57)))
 (let (($x9994 (= (stack_s x_0 x_1 x_2 x_3 w_1 0 (_ bv3 6)) x_3)))
 (let (($x9977 (= (stack_s x_0 x_1 x_2 x_3 w_1 0 (_ bv2 6)) x_2)))
 (let (($x8880 (= (stack_s x_0 x_1 x_2 x_3 w_1 0 (_ bv1 6)) x_1)))
 (let (($x8891 (= (stack_s x_0 x_1 x_2 x_3 w_1 0 (_ bv0 6)) x_0)))
 (let (($x3266 (= ?x72 (_ bv4 6))))
 (and $x3266 $x8891 $x8880 $x9977 $x9994 $x3853 $x3049 $x3555 (= ?x9293 ?x1726) (= (stack_s x_0 x_1 x_2 x_3 w_1 1 ?x7254) ?x1726) $x9276 $x9290 $x9272 (= (used_gas_s x_0 x_1 x_2 x_3 w_1 1) (+ 3 ?x7724)) $x3843 $x8933 $x8969 $x7157 (= (stack_s x_0 x_1 x_2 x_3 w_1 2 (bvadd (_ bv63 6) ?x218)) ?x8954) (= (stack_s x_0 x_1 x_2 x_3 w_1 2 ?x8708) ?x8954) $x8942 $x8984 (= (stack_s x_0 x_1 x_2 x_3 w_1 2 ?x3842) ?x9293) (= ?x8927 (+ 3 (used_gas_s x_0 x_1 x_2 x_3 w_1 1))) $x1015 $x9005 $x9011 $x1059 (= (stack_s x_0 x_1 x_2 x_3 w_1 3 ?x218) w_1) (= ?x8730 (+ 3 ?x8927)) $x3819 $x9008 $x9016 $x3529 (= ?x9034 (stack_s x_0 x_1 x_2 x_3 w_1 3 (bvadd (_ bv60 6) ?x275))) $x9080 (= ?x9082 (stack_s x_0 x_1 x_2 x_3 w_1 3 (bvadd (_ bv61 6) ?x275))) (= ?x9073 (stack_s x_0 x_1 x_2 x_3 w_1 3 (bvadd (_ bv62 6) ?x275))) (= ?x7759 (+ 3 ?x8730)) $x1228 $x9106 $x9099 $x9117 (= (stack_s x_0 x_1 x_2 x_3 w_1 5 (bvadd (_ bv63 6) ?x805)) ?x9082) (= (stack_s x_0 x_1 x_2 x_3 w_1 5 (bvadd (_ bv61 6) ?x805)) ?x9034) (= (stack_s x_0 x_1 x_2 x_3 w_1 5 (bvadd (_ bv62 6) ?x805)) ?x9073) $x9149 $x3364 $x9155 $x9158 $x9879 (= (stack_t x_0 x_1 x_2 x_3 w_1 1 ?x63) w_1) (= (used_gas_t x_0 x_1 x_2 x_3 w_1 1) (+ 3 ?x7717)) $x3747 $x9160 $x9164 $x420 (= ?x9191 (stack_t x_0 x_1 x_2 x_3 w_1 1 (bvadd (_ bv62 6) ?x4023))) (= ?x9174 (stack_t x_0 x_1 x_2 x_3 w_1 1 (bvadd (_ bv63 6) ?x4023))) (= ?x446 (+ 3 (used_gas_t x_0 x_1 x_2 x_3 w_1 1))) $x2318 $x9210 $x9198 $x6625 (= ?x9208 ?x9322) (= (stack_t x_0 x_1 x_2 x_3 w_1 3 ?x2153) ?x9322) $x9256 (= (stack_t x_0 x_1 x_2 x_3 w_1 3 ?x2229) ?x9174) (= (stack_t x_0 x_1 x_2 x_3 w_1 3 ?x7929) ?x9191) (= ?x7774 (+ 3 ?x446)) $x3582 $x9258 $x8935 $x7607 (= (stack_t x_0 x_1 x_2 x_3 w_1 4 (bvadd (_ bv63 6) ?x9469)) ?x8944) (= (stack_t x_0 x_1 x_2 x_3 w_1 4 ?x7538) ?x8944) $x9236 $x8866 $x9219 $x9212 (= (stack_t x_0 x_1 x_2 x_3 w_1 4 ?x3673) ?x9208) $x9088 $x4660 $x9064 $x9132 (= $x8747 (or $x5001 $x5374 $x8030)) $x73 $x9055 $x58 $x8679 $x7733 (not (and $x670 $x9045 $x550 $x8797)))))))))))))))))))))))))))))))))))))))))))))))))))))))))))))))))))))))))))))))))))))))))))))))))))))))))))))))))))))))))))))))))
 )
(check-sat)
(get-proof)
